c Result of efficient AIG-to-CNF conversion using package CNF
p cnf 450 1580
2 -3 -207 0
2 -422 -3 -4 0
-2 3 0
-2 422 207 0
-2 4 207 0
3 -418 -419 -420 -421 0
-3 421 0
-3 418 0
-3 420 0
-3 419 0
-4 5 137 140 168 0
-4 5 -137 -140 168 0
4 -168 0
4 -137 140 0
4 -5 0
4 137 -140 0
-5 6 8 0
-5 8 62 101 0
5 -8 0
5 -6 -101 0
5 -6 -62 0
6 -425 -426 -7 0
-6 425 0
-6 426 0
-6 7 0
7 -423 -424 0
-7 423 0
-7 424 0
8 9 -24 0
8 -9 24 0
-8 -9 -24 0
-8 9 24 0
9 -10 -21 0
-9 10 0
-9 21 0
10 -11 -15 -7 -20 0
-10 20 0
-10 11 0
-10 7 0
-10 15 0
11 -12 -13 -14 0
-11 12 0
-11 13 0
-11 14 0
12 -428 -429 -430 0
-12 428 0
-12 429 0
-12 430 0
13 -435 -436 0
-13 435 0
-13 436 0
14 -425 -426 -427 0
-14 425 0
-14 426 0
-14 427 0
15 -445 -16 0
-15 445 0
-15 16 0
16 -437 -438 -439 -17 0
-16 17 0
-16 437 0
-16 439 0
-16 438 0
17 -18 -19 0
-17 18 0
-17 19 0
18 -442 -443 -444 0
-18 442 0
-18 443 0
-18 444 0
19 -440 -441 0
-19 440 0
-19 441 0
20 -431 -432 -433 -434 0
-20 434 0
-20 431 0
-20 433 0
-20 432 0
21 -446 -22 0
-21 446 0
-21 22 0
22 -447 -23 0
-22 447 0
-22 23 0
23 -416 -448 -449 0
23 -417 -448 449 0
-23 448 0
-23 416 -449 0
-23 417 449 0
24 445 -25 -48 0
24 -445 -25 -32 0
-24 25 0
-24 -445 32 0
-24 445 48 0
25 -26 -28 0
-25 26 0
-25 28 0
26 -18 -27 0
-26 18 0
-26 27 0
27 -438 -439 -19 0
-27 438 0
-27 439 0
-27 19 0
28 -29 -6 -30 0
-28 29 0
-28 6 0
-28 30 0
29 -427 -12 0
-29 427 0
-29 12 0
30 -437 -31 0
-30 437 0
-30 31 0
31 -13 -20 0
-31 13 0
-31 20 0
-32 -446 33 0
-32 446 41 0
32 -446 -33 0
32 446 -41 0
-33 -447 34 0
-33 447 38 0
33 -447 -34 0
33 447 -38 0
-34 448 37 0
-34 -448 35 36 0
34 -448 -35 0
34 448 -37 0
34 -448 -36 0
35 -416 -449 0
-35 416 0
-35 449 0
36 -415 449 0
-36 415 0
-36 -449 0
-37 413 449 0
-37 414 -449 0
37 -414 -449 0
37 -413 449 0
38 448 -40 0
38 -448 -39 0
-38 -448 39 0
-38 448 40 0
-39 411 449 0
-39 412 -449 0
39 -412 -449 0
39 -411 449 0
-40 409 449 0
-40 410 -449 0
40 -410 -449 0
40 -409 449 0
41 -447 -42 0
41 447 -45 0
-41 447 45 0
-41 -447 42 0
42 448 -44 0
42 -448 -43 0
-42 -448 43 0
-42 448 44 0
-43 407 449 0
-43 408 -449 0
43 -408 -449 0
43 -407 449 0
-44 405 449 0
-44 406 -449 0
44 -406 -449 0
44 -405 449 0
45 448 -47 0
45 -448 -46 0
-45 -448 46 0
-45 448 47 0
-46 403 449 0
-46 404 -449 0
46 -404 -449 0
46 -403 449 0
-47 401 449 0
-47 402 -449 0
47 -402 -449 0
47 -401 449 0
48 -446 -49 0
48 446 -56 0
-48 446 56 0
-48 -446 49 0
49 -447 -50 0
49 447 -53 0
-49 447 53 0
-49 -447 50 0
50 448 -52 0
50 -448 -51 0
-50 -448 51 0
-50 448 52 0
-51 399 449 0
-51 400 -449 0
51 -400 -449 0
51 -399 449 0
-52 397 449 0
-52 398 -449 0
52 -398 -449 0
52 -397 449 0
53 448 -55 0
53 -448 -54 0
-53 -448 54 0
-53 448 55 0
-54 395 449 0
-54 396 -449 0
54 -396 -449 0
54 -395 449 0
-55 393 449 0
-55 394 -449 0
55 -394 -449 0
55 -393 449 0
56 -447 -57 0
56 447 -60 0
-56 447 60 0
-56 -447 57 0
57 448 -59 0
57 -448 -58 0
-57 -448 58 0
-57 448 59 0
-58 391 449 0
-58 392 -449 0
58 -392 -449 0
58 -391 449 0
-59 389 449 0
-59 390 -449 0
59 -390 -449 0
59 -389 449 0
60 -448 -61 0
60 -386 448 -449 0
-60 448 449 0
-60 -448 61 0
-60 386 448 0
-61 387 449 0
-61 388 -449 0
61 -388 -449 0
61 -387 449 0
62 6 -63 0
62 -63 97 0
62 422 -63 0
-62 63 0
-62 -422 -6 -97 0
63 445 -64 -82 0
63 -445 -64 -66 0
-63 64 0
-63 -445 66 0
-63 445 82 0
64 -13 -16 -65 0
-64 13 0
-64 16 0
-64 65 0
65 -20 -29 0
-65 20 0
-65 29 0
-66 -446 67 0
-66 446 75 0
66 -446 -67 0
66 446 -75 0
-67 -447 68 0
-67 447 72 0
67 -447 -68 0
67 447 -72 0
-68 448 71 0
-68 -448 69 70 0
68 -448 -69 0
68 448 -71 0
68 -448 -70 0
69 -387 449 0
-69 387 0
-69 -449 0
70 -386 -449 0
-70 386 0
-70 449 0
-71 389 449 0
-71 388 -449 0
71 -389 449 0
71 -388 -449 0
72 448 -74 0
72 -448 -73 0
-72 -448 73 0
-72 448 74 0
-73 391 449 0
-73 390 -449 0
73 -391 449 0
73 -390 -449 0
-74 393 449 0
-74 392 -449 0
74 -393 449 0
74 -392 -449 0
75 -447 -76 0
75 447 -79 0
-75 447 79 0
-75 -447 76 0
76 448 -78 0
76 -448 -77 0
-76 -448 77 0
-76 448 78 0
-77 395 449 0
-77 394 -449 0
77 -395 449 0
77 -394 -449 0
-78 397 449 0
-78 396 -449 0
78 -397 449 0
78 -396 -449 0
79 448 -81 0
79 -448 -80 0
-79 -448 80 0
-79 448 81 0
-80 399 449 0
-80 398 -449 0
80 -399 449 0
80 -398 -449 0
-81 401 449 0
-81 400 -449 0
81 -401 449 0
81 -400 -449 0
82 -446 -83 0
82 446 -90 0
-82 446 90 0
-82 -446 83 0
83 -447 -84 0
83 447 -87 0
-83 447 87 0
-83 -447 84 0
84 448 -86 0
84 -448 -85 0
-84 -448 85 0
-84 448 86 0
-85 403 449 0
-85 402 -449 0
85 -403 449 0
85 -402 -449 0
-86 405 449 0
-86 404 -449 0
86 -405 449 0
86 -404 -449 0
87 448 -89 0
87 -448 -88 0
-87 -448 88 0
-87 448 89 0
-88 407 449 0
-88 406 -449 0
88 -407 449 0
88 -406 -449 0
-89 409 449 0
-89 408 -449 0
89 -409 449 0
89 -408 -449 0
90 -447 -91 0
90 447 -94 0
-90 447 94 0
-90 -447 91 0
91 448 -93 0
91 -448 -92 0
-91 -448 92 0
-91 448 93 0
-92 411 449 0
-92 410 -449 0
92 -411 449 0
92 -410 -449 0
-93 413 449 0
-93 412 -449 0
93 -413 449 0
93 -412 -449 0
94 -448 -96 0
94 448 -95 0
-94 448 95 0
-94 -448 96 0
-95 417 449 0
-95 416 -449 0
95 -417 449 0
95 -416 -449 0
-96 415 449 0
-96 414 -449 0
96 -415 449 0
96 -414 -449 0
97 -65 -98 -99 0
-97 65 0
-97 98 0
-97 99 0
98 -13 -15 0
-98 13 0
-98 15 0
99 -446 -100 0
-99 446 0
-99 100 0
100 -386 -447 -448 -449 0
-100 449 0
-100 386 0
-100 448 0
-100 447 0
-101 97 103 0
-101 -63 -102 103 0
101 -103 0
101 -97 102 0
101 63 -97 0
102 -422 -7 0
-102 422 0
-102 7 0
103 445 -64 -123 0
103 -445 -64 -104 0
-103 64 0
-103 -445 104 0
-103 445 123 0
104 -446 -105 0
104 446 -116 0
-104 446 116 0
-104 -446 105 0
105 6 -106 0
105 106 -108 0
105 -106 108 0
-105 106 108 0
-105 -6 -106 -108 0
106 -447 -107 0
-106 447 0
-106 107 0
107 -386 -448 449 0
107 -387 -448 -449 0
-107 448 0
-107 387 -449 0
-107 386 449 0
-108 -447 109 0
-108 447 113 0
108 -447 -109 0
108 447 -113 0
-109 448 112 0
-109 -448 110 111 0
109 -448 -110 0
109 448 -112 0
109 -448 -111 0
110 -387 -449 0
-110 387 0
-110 449 0
111 -388 449 0
-111 388 0
-111 -449 0
-112 390 449 0
-112 389 -449 0
112 -390 449 0
112 -389 -449 0
113 448 -115 0
113 -448 -114 0
-113 -448 114 0
-113 448 115 0
-114 392 449 0
-114 391 -449 0
114 -392 449 0
114 -391 -449 0
-115 394 449 0
-115 393 -449 0
115 -394 449 0
115 -393 -449 0
116 -447 -117 0
116 447 -120 0
-116 447 120 0
-116 -447 117 0
117 448 -119 0
117 -448 -118 0
-117 -448 118 0
-117 448 119 0
-118 396 449 0
-118 395 -449 0
118 -396 449 0
118 -395 -449 0
-119 398 449 0
-119 397 -449 0
119 -398 449 0
119 -397 -449 0
120 448 -122 0
120 -448 -121 0
-120 -448 121 0
-120 448 122 0
-121 400 449 0
-121 399 -449 0
121 -400 449 0
121 -399 -449 0
-122 402 449 0
-122 401 -449 0
122 -402 449 0
122 -401 -449 0
123 -446 -124 0
123 446 -131 0
-123 446 131 0
-123 -446 124 0
124 -447 -125 0
124 447 -128 0
-124 447 128 0
-124 -447 125 0
125 448 -127 0
125 -448 -126 0
-125 -448 126 0
-125 448 127 0
-126 404 449 0
-126 403 -449 0
126 -404 449 0
126 -403 -449 0
-127 406 449 0
-127 405 -449 0
127 -406 449 0
127 -405 -449 0
128 448 -130 0
128 -448 -129 0
-128 -448 129 0
-128 448 130 0
-129 408 449 0
-129 407 -449 0
129 -408 449 0
129 -407 -449 0
-130 410 449 0
-130 409 -449 0
130 -410 449 0
130 -409 -449 0
131 -447 -132 0
131 447 -135 0
-131 447 135 0
-131 -447 132 0
132 448 -134 0
132 -448 -133 0
-132 -448 133 0
-132 448 134 0
-133 412 449 0
-133 411 -449 0
133 -412 449 0
133 -411 -449 0
-134 414 449 0
-134 413 -449 0
134 -414 449 0
134 -413 -449 0
135 -448 -136 0
135 -417 448 -449 0
-135 448 449 0
-135 -448 136 0
-135 417 448 0
-136 416 449 0
-136 415 -449 0
136 -416 449 0
136 -415 -449 0
137 -10 -138 0
-137 10 0
-137 138 0
138 -446 -139 0
-138 446 0
-138 139 0
139 -447 -135 0
-139 447 0
-139 135 0
140 445 -25 -156 0
140 -445 -25 -141 0
-140 25 0
-140 -445 141 0
-140 445 156 0
-141 -446 142 0
-141 446 149 0
141 -446 -142 0
141 446 -149 0
-142 -447 143 0
-142 447 146 0
142 -447 -143 0
142 447 -146 0
-143 448 144 0
-143 -448 145 0
143 -448 -145 0
143 448 -144 0
-144 412 449 0
-144 413 -449 0
144 -413 -449 0
144 -412 449 0
-145 414 449 0
-145 415 -449 0
145 -415 -449 0
145 -414 449 0
146 448 -148 0
146 -448 -147 0
-146 -448 147 0
-146 448 148 0
-147 410 449 0
-147 411 -449 0
147 -411 -449 0
147 -410 449 0
-148 408 449 0
-148 409 -449 0
148 -409 -449 0
148 -408 449 0
149 -447 -150 0
149 447 -153 0
-149 447 153 0
-149 -447 150 0
150 448 -152 0
150 -448 -151 0
-150 -448 151 0
-150 448 152 0
-151 406 449 0
-151 407 -449 0
151 -407 -449 0
151 -406 449 0
-152 404 449 0
-152 405 -449 0
152 -405 -449 0
152 -404 449 0
153 448 -155 0
153 -448 -154 0
-153 -448 154 0
-153 448 155 0
-154 402 449 0
-154 403 -449 0
154 -403 -449 0
154 -402 449 0
-155 400 449 0
-155 401 -449 0
155 -401 -449 0
155 -400 449 0
156 -446 -157 0
156 446 -164 0
-156 446 164 0
-156 -446 157 0
157 -447 -158 0
157 447 -161 0
-157 447 161 0
-157 -447 158 0
158 448 -160 0
158 -448 -159 0
-158 -448 159 0
-158 448 160 0
-159 398 449 0
-159 399 -449 0
159 -399 -449 0
159 -398 449 0
-160 396 449 0
-160 397 -449 0
160 -397 -449 0
160 -396 449 0
161 448 -163 0
161 -448 -162 0
-161 -448 162 0
-161 448 163 0
-162 394 449 0
-162 395 -449 0
162 -395 -449 0
162 -394 449 0
-163 392 449 0
-163 393 -449 0
163 -393 -449 0
163 -392 449 0
164 447 -107 0
164 -447 -165 0
-164 -447 165 0
-164 447 107 0
165 448 -167 0
165 -448 -166 0
-165 -448 166 0
-165 448 167 0
-166 390 449 0
-166 391 -449 0
166 -391 -449 0
166 -390 449 0
-167 388 449 0
-167 389 -449 0
167 -389 -449 0
167 -388 449 0
-168 171 189 0
-168 -10 -169 189 0
168 -189 0
168 169 -171 0
168 10 -171 0
169 -446 -170 0
-169 446 0
-169 170 0
170 -417 -447 -448 -449 0
-170 449 0
-170 417 0
-170 448 0
-170 447 0
171 445 -25 -181 0
171 -445 -25 -172 0
-171 25 0
-171 -445 172 0
-171 445 181 0
-172 -446 173 0
-172 446 178 0
172 -446 -173 0
172 446 -178 0
-173 -447 174 0
-173 447 177 0
173 -447 -174 0
173 447 -177 0
-174 448 145 0
-174 -448 175 176 0
174 -448 -175 0
174 448 -145 0
174 -448 -176 0
175 -416 449 0
-175 416 0
-175 -449 0
176 -417 -449 0
-176 417 0
-176 449 0
177 448 -147 0
177 -448 -144 0
-177 -448 144 0
-177 448 147 0
178 -447 -179 0
178 447 -180 0
-178 447 180 0
-178 -447 179 0
179 448 -151 0
179 -448 -148 0
-179 -448 148 0
-179 448 151 0
180 448 -154 0
180 -448 -152 0
-180 -448 152 0
-180 448 154 0
181 -446 -182 0
181 446 -185 0
-181 446 185 0
-181 -446 182 0
182 -447 -183 0
182 447 -184 0
-182 447 184 0
-182 -447 183 0
183 448 -159 0
183 -448 -155 0
-183 -448 155 0
-183 448 159 0
184 448 -162 0
184 -448 -160 0
-184 -448 160 0
-184 448 162 0
185 -447 -186 0
185 447 -187 0
-185 447 187 0
-185 -447 186 0
186 448 -166 0
186 -448 -163 0
-186 -448 163 0
-186 448 166 0
187 -448 -167 0
187 448 -188 0
-187 448 188 0
-187 -448 167 0
-188 386 449 0
-188 387 -449 0
188 -387 -449 0
188 -386 449 0
189 190 -193 0
189 -190 193 0
-189 -190 -193 0
-189 190 193 0
190 -10 -191 0
-190 10 0
-190 191 0
191 -446 -192 0
-191 446 0
-191 192 0
192 -447 -94 0
-192 447 0
-192 94 0
193 445 -25 -201 0
193 -445 -25 -194 0
-193 25 0
-193 -445 194 0
-193 445 201 0
-194 -446 195 0
-194 446 198 0
194 -446 -195 0
194 446 -198 0
-195 -447 196 0
-195 447 197 0
195 -447 -196 0
195 447 -197 0
-196 -448 37 0
-196 448 39 0
196 448 -39 0
196 -448 -37 0
197 448 -43 0
197 -448 -40 0
-197 -448 40 0
-197 448 43 0
198 -447 -199 0
198 447 -200 0
-198 447 200 0
-198 -447 199 0
199 448 -46 0
199 -448 -44 0
-199 -448 44 0
-199 448 46 0
200 448 -51 0
200 -448 -47 0
-200 -448 47 0
-200 448 51 0
201 -446 -202 0
201 446 -205 0
-201 446 205 0
-201 -446 202 0
202 -447 -203 0
202 447 -204 0
-202 447 204 0
-202 -447 203 0
203 448 -54 0
203 -448 -52 0
-203 -448 52 0
-203 448 54 0
204 448 -58 0
204 -448 -55 0
-204 -448 55 0
-204 448 58 0
205 -447 -206 0
205 447 -448 -70 0
-205 -447 206 0
-205 447 70 0
-205 447 448 0
206 448 -61 0
206 -448 -59 0
-206 -448 59 0
-206 448 61 0
-207 208 325 345 364 0
207 -364 0
207 -208 0
207 -345 0
207 -325 0
-208 209 273 296 310 0
208 -310 0
208 -209 0
208 -296 0
208 -273 0
-209 210 241 250 252 0
-209 210 -241 -250 252 0
209 -252 0
209 -241 250 0
209 -210 0
209 241 -250 0
-210 -211 -220 229 0
-210 211 220 229 0
210 -229 0
210 -211 220 0
210 211 -220 0
211 -212 -214 0
-211 212 0
-211 214 0
212 -422 -17 -28 -213 0
-212 213 0
-212 422 0
-212 28 0
-212 17 0
213 -438 -439 -445 0
-213 438 0
-213 439 0
-213 445 0
214 -446 -215 0
214 446 -218 0
-214 446 218 0
-214 -446 215 0
215 -447 -216 0
215 447 -217 0
-215 447 217 0
-215 -447 216 0
216 448 -88 0
216 -448 -86 0
-216 -448 86 0
-216 448 88 0
217 448 -92 0
217 -448 -89 0
-217 -448 89 0
-217 448 92 0
218 447 -23 0
218 -447 -219 0
-218 -447 219 0
-218 447 23 0
219 448 -96 0
219 -448 -93 0
-219 -448 93 0
-219 448 96 0
220 445 -221 -227 0
220 -445 -221 -224 0
-220 221 0
-220 -445 224 0
-220 445 227 0
221 -26 -30 -222 0
-221 26 0
-221 30 0
-221 222 0
222 -14 -223 0
-222 14 0
-222 223 0
223 -422 -12 -7 0
-223 422 0
-223 12 0
-223 7 0
-224 -446 226 0
-224 446 225 0
224 446 -225 0
224 -446 -226 0
225 -447 -53 0
225 447 -57 0
-225 447 57 0
-225 -447 53 0
226 -447 -45 0
226 447 -50 0
-226 447 50 0
-226 -447 45 0
227 -446 -228 0
-227 446 0
-227 228 0
228 -447 -60 0
-228 447 0
-228 60 0
-229 230 233 -236 -237 0
-229 -230 -233 -236 -237 0
-229 230 233 236 237 0
-229 -230 -233 236 237 0
229 230 -233 0
229 -230 233 0
229 236 -237 0
229 -236 237 0
230 -212 -231 0
-230 212 0
-230 231 0
231 446 -139 0
231 -446 -232 0
-231 -446 232 0
-231 446 139 0
232 -447 -128 0
232 447 -132 0
-232 447 132 0
-232 -447 128 0
233 445 -221 -235 0
233 -445 -221 -234 0
-233 221 0
-233 -445 234 0
-233 445 235 0
-234 446 157 0
-234 -446 149 0
234 -446 -149 0
234 446 -157 0
235 -446 -164 0
-235 446 0
-235 164 0
236 -82 -212 0
-236 82 0
-236 212 0
237 445 -99 -221 0
237 -445 -221 -238 0
-237 221 0
-237 -445 238 0
-237 445 99 0
-238 -446 240 0
-238 446 239 0
238 446 -239 0
238 -446 -240 0
239 -447 -204 0
239 447 -206 0
-239 447 206 0
-239 -447 204 0
240 -447 -200 0
240 447 -203 0
-240 447 203 0
-240 -447 200 0
241 445 -221 -248 0
241 -445 -221 -242 0
-241 221 0
-241 -445 242 0
-241 445 248 0
-242 -446 243 0
-242 446 246 0
242 -446 -243 0
242 446 -246 0
-243 -447 245 0
-243 447 244 0
243 447 -244 0
243 -447 -245 0
244 448 -80 0
244 -448 -78 0
-244 -448 78 0
-244 448 80 0
245 448 -77 0
245 -448 -74 0
-245 -448 74 0
-245 448 77 0
246 447 -216 0
246 -447 -247 0
-246 -447 247 0
-246 447 216 0
247 448 -85 0
247 -448 -81 0
-247 -448 81 0
-247 448 85 0
248 446 -22 0
248 -446 -249 0
-248 -446 249 0
-248 446 22 0
249 -447 -217 0
249 447 -219 0
-249 447 219 0
-249 -447 217 0
250 -212 -251 0
-250 212 0
-250 251 0
251 -446 -56 0
-251 446 0
-251 56 0
-252 -258 271 0
-252 253 -259 0
-252 -258 -259 0
-252 253 271 0
252 259 -271 0
252 -253 258 0
253 445 -214 -221 0
253 -445 -221 -254 0
-253 221 0
-253 -445 254 0
-253 445 214 0
-254 -446 255 0
-254 446 257 0
254 -446 -255 0
254 446 -257 0
-255 -447 256 0
-255 447 245 0
255 447 -245 0
255 -447 -256 0
-256 -448 71 0
-256 448 73 0
256 448 -73 0
256 -448 -71 0
257 -447 -244 0
257 447 -247 0
-257 447 247 0
-257 -447 244 0
258 -15 -31 -222 -227 0
-258 227 0
-258 15 0
-258 222 0
-258 31 0
259 445 -221 -267 0
259 -445 -221 -260 0
-259 221 0
-259 -445 260 0
-259 445 267 0
-260 -446 261 0
-260 446 264 0
260 -446 -261 0
260 446 -264 0
-261 -447 263 0
-261 447 262 0
261 447 -262 0
261 -447 -263 0
262 448 -121 0
262 -448 -119 0
-262 -448 119 0
-262 448 121 0
263 448 -118 0
263 -448 -115 0
-263 -448 115 0
-263 448 118 0
264 -447 -265 0
264 447 -266 0
-264 447 266 0
-264 -447 265 0
265 448 -126 0
265 -448 -122 0
-265 -448 122 0
-265 448 126 0
266 448 -129 0
266 -448 -127 0
-266 -448 127 0
-266 448 129 0
267 446 -170 0
267 -446 -268 0
-267 -446 268 0
-267 446 170 0
268 -447 -269 0
268 447 -270 0
-268 447 270 0
-268 -447 269 0
269 448 -133 0
269 -448 -130 0
-269 -448 130 0
-269 448 133 0
270 448 -136 0
270 -448 -134 0
-270 -448 134 0
-270 448 136 0
271 -212 -272 0
-271 212 0
-271 272 0
272 -446 -185 0
-272 446 0
-272 185 0
-273 -274 -284 294 0
-273 274 284 -288 0
-273 274 284 294 0
-273 -274 -284 -288 0
273 274 -284 0
273 -274 284 0
273 288 -294 0
274 -27 -223 275 -279 0
-274 279 0
-274 27 0
-274 223 0
-274 -275 0
275 -445 446 278 0
275 -445 -446 276 0
-275 445 0
-275 -446 -276 0
-275 446 -278 0
276 447 -263 0
276 -447 -277 0
-276 -447 277 0
-276 447 263 0
277 448 -114 0
277 -448 -112 0
-277 -448 112 0
-277 448 114 0
278 -447 -262 0
278 447 -265 0
-278 447 265 0
-278 -447 262 0
279 -280 -283 0
279 -445 -283 0
-279 283 0
-279 445 280 0
280 -446 -281 0
280 446 -282 0
-280 446 282 0
-280 -446 281 0
281 -447 -266 0
281 447 -269 0
-281 447 269 0
-281 -447 266 0
282 -447 -270 0
282 447 -448 -176 0
-282 -447 270 0
-282 447 176 0
-282 447 448 0
283 -14 -18 -30 0
-283 14 0
-283 18 0
-283 30 0
284 -19 -223 -285 -287 0
-284 287 0
-284 19 0
-284 285 0
-284 223 0
285 -446 -286 0
-285 446 0
-285 286 0
286 -447 -187 0
-286 447 0
-286 187 0
287 -438 -439 -445 -283 0
-287 283 0
-287 438 0
-287 445 0
-287 439 0
288 445 -221 -292 0
288 -445 -221 -289 0
-288 221 0
-288 -445 289 0
-288 445 292 0
-289 -446 290 0
-289 446 291 0
289 -446 -290 0
289 446 -291 0
-290 447 76 0
-290 -447 72 0
290 -447 -72 0
290 447 -76 0
291 -447 -79 0
291 447 -84 0
-291 447 84 0
-291 -447 79 0
292 446 -192 0
292 -446 -293 0
-292 -446 293 0
-292 446 192 0
293 -447 -87 0
293 447 -91 0
-293 447 91 0
-293 -447 87 0
294 -20 -98 -222 -295 0
-294 295 0
-294 20 0
-294 222 0
-294 98 0
295 -446 -205 0
-295 446 0
-295 205 0
-296 -297 -299 -309 0
-296 297 299 305 0
-296 297 299 -309 0
-296 -297 -299 305 0
296 297 -299 0
296 -297 299 0
296 -305 309 0
297 -212 -298 0
-297 212 0
-297 298 0
298 -446 -282 0
-298 446 0
-298 282 0
299 445 -221 -303 0
299 -445 -221 -300 0
-299 221 0
-299 -445 300 0
-299 445 303 0
-300 -446 301 0
-300 446 302 0
300 -446 -301 0
300 446 -302 0
-301 447 179 0
-301 -447 177 0
301 -447 -177 0
301 447 -179 0
302 -447 -180 0
302 447 -183 0
-302 447 183 0
-302 -447 180 0
303 446 -286 0
303 -446 -304 0
-303 -446 304 0
-303 446 286 0
304 -447 -184 0
304 447 -186 0
-304 447 186 0
-304 -447 184 0
305 445 -221 -231 0
305 -445 -221 -306 0
-305 221 0
-305 -445 306 0
-305 445 231 0
-306 -446 307 0
-306 446 308 0
306 -446 -307 0
306 446 -308 0
-307 447 117 0
-307 -447 113 0
307 -447 -113 0
307 447 -117 0
308 -447 -120 0
308 447 -125 0
-308 447 125 0
-308 -447 120 0
309 -212 -235 0
-309 212 0
-309 235 0
-310 -305 311 318 0
-310 309 311 318 0
310 -318 0
310 -311 0
310 305 -309 0
-311 -312 -313 -317 0
-311 312 313 315 0
-311 312 313 -317 0
-311 -312 -313 315 0
311 312 -313 0
311 -312 313 0
311 -315 317 0
312 -212 -280 0
-312 212 0
-312 280 0
313 445 -221 -285 0
313 -445 -221 -314 0
-313 221 0
-313 -445 314 0
-313 445 285 0
-314 446 304 0
-314 -446 302 0
314 -446 -302 0
314 446 -304 0
315 445 -138 -221 0
315 -445 -221 -316 0
-315 221 0
-315 -445 316 0
-315 445 138 0
-316 -446 308 0
-316 446 232 0
316 446 -232 0
316 -446 -308 0
317 -156 -212 0
-317 156 0
-317 212 0
-318 319 321 -322 -324 0
-318 -319 -321 -322 -324 0
-318 319 321 322 324 0
-318 -319 -321 322 324 0
318 319 -321 0
318 -319 321 0
318 322 -324 0
318 -322 324 0
319 445 -21 -221 0
319 -445 -221 -320 0
-319 221 0
-319 -445 320 0
-319 445 21 0
-320 446 249 0
-320 -446 246 0
320 -446 -246 0
320 446 -249 0
321 -48 -212 0
-321 48 0
-321 212 0
322 445 -221 -298 0
322 -445 -221 -323 0
-322 221 0
-322 -445 323 0
-322 445 298 0
-323 446 281 0
-323 -446 278 0
323 -446 -278 0
323 446 -281 0
324 -212 -303 0
-324 212 0
-324 303 0
-325 326 333 336 338 0
-325 326 -333 -336 338 0
325 -338 0
325 -333 336 0
325 -326 0
325 333 -336 0
-326 327 -330 -331 0
-326 -328 330 331 0
-326 327 330 331 0
-326 -328 -330 -331 0
326 330 -331 0
326 -330 331 0
326 -327 328 0
327 -212 -248 0
-327 212 0
-327 248 0
328 445 -221 -251 0
328 -445 -221 -329 0
-328 221 0
-328 -445 329 0
-328 445 251 0
-329 446 49 0
-329 -446 41 0
329 -446 -41 0
329 446 -49 0
330 -212 -267 0
-330 212 0
-330 267 0
331 445 -221 -272 0
331 -445 -221 -332 0
-331 221 0
-331 -445 332 0
-331 445 272 0
-332 446 182 0
-332 -446 178 0
332 -446 -178 0
332 446 -182 0
333 445 -221 -335 0
333 -445 -221 -334 0
-333 221 0
-333 -445 334 0
-333 445 335 0
-334 -446 257 0
-334 446 215 0
334 446 -215 0
334 -446 -257 0
335 -446 -218 0
-335 446 0
-335 218 0
336 -212 -337 0
-336 212 0
-336 337 0
337 -446 -225 0
337 446 -228 0
-337 446 228 0
-337 -446 225 0
-338 317 339 340 0
-338 -315 -339 -340 0
-338 -315 339 340 0
-338 317 -339 -340 0
338 339 -340 0
338 -339 340 0
338 315 -317 0
339 -123 -212 0
-339 123 0
-339 212 0
340 445 -221 -344 0
340 -445 -221 -341 0
-340 221 0
-340 -445 341 0
-340 445 344 0
-341 -446 343 0
-341 446 342 0
341 446 -342 0
341 -446 -343 0
342 -447 -161 0
342 447 -165 0
-342 447 165 0
-342 -447 161 0
343 -447 -153 0
343 447 -158 0
-343 447 158 0
-343 -447 153 0
344 -446 -106 0
-344 446 0
-344 106 0
-345 -346 352 359 0
-345 348 352 359 0
345 -359 0
345 -352 0
345 346 -348 0
346 -212 -347 0
-346 212 0
-346 347 0
347 -446 -90 0
-347 446 0
-347 90 0
348 445 -221 -351 0
348 -445 -221 -349 0
-348 221 0
-348 -445 349 0
-348 445 351 0
-349 -446 350 0
-349 446 240 0
349 446 -240 0
349 -446 -350 0
-350 447 199 0
-350 -447 197 0
350 -447 -197 0
350 447 -199 0
351 446 -100 0
351 -446 -239 0
-351 -446 239 0
-351 446 100 0
-352 -353 -355 -348 0
-352 353 355 346 0
-352 353 355 -348 0
-352 -353 -355 346 0
352 353 -355 0
352 -353 355 0
352 -346 348 0
353 -212 -354 0
-353 212 0
-353 354 0
354 -446 -131 0
-354 446 0
-354 131 0
355 445 -221 -358 0
355 -445 -221 -356 0
-355 221 0
-355 -445 356 0
-355 445 358 0
-356 -446 357 0
-356 446 343 0
356 446 -343 0
356 -446 -357 0
-357 447 150 0
-357 -447 146 0
357 -447 -146 0
357 447 -150 0
358 446 -106 0
358 -446 -342 0
-358 -446 342 0
-358 446 106 0
-359 -360 -361 0
-359 360 361 0
359 360 -361 0
359 -360 361 0
360 -212 -335 0
-360 212 0
-360 335 0
361 445 -221 -337 0
361 -445 -221 -362 0
-361 221 0
-361 -445 362 0
-361 445 337 0
-362 -446 363 0
-362 446 226 0
362 446 -226 0
362 -446 -363 0
-363 447 42 0
-363 -447 38 0
363 -447 -38 0
363 447 -42 0
-364 365 376 378 382 0
364 -382 0
364 -365 0
364 -378 0
364 -376 0
-365 -366 -367 369 0
-365 366 367 369 0
365 -369 0
365 -366 367 0
365 366 -367 0
366 -212 -292 0
-366 212 0
-366 292 0
367 445 -221 -295 0
367 -445 -221 -368 0
-367 221 0
-367 -445 368 0
-367 445 295 0
-368 446 202 0
-368 -446 198 0
368 -446 -198 0
368 446 -202 0
-369 370 372 -373 -375 0
-369 -370 -372 -373 -375 0
-369 370 372 373 375 0
-369 -370 -372 373 375 0
369 370 -372 0
369 -370 372 0
369 373 -375 0
369 -373 375 0
370 445 -221 -347 0
370 -445 -221 -371 0
-370 221 0
-370 -445 371 0
-370 445 347 0
-371 446 83 0
-371 -446 75 0
371 -446 -75 0
371 446 -83 0
372 -212 -351 0
-372 212 0
-372 351 0
373 445 -221 -354 0
373 -445 -221 -374 0
-373 221 0
-373 -445 374 0
-373 445 354 0
-374 446 124 0
-374 -446 116 0
374 -446 -116 0
374 446 -124 0
375 -212 -358 0
-375 212 0
-375 358 0
-376 -271 377 0
-376 259 377 0
376 -377 0
376 -259 271 0
-377 -253 -294 0
-377 258 288 0
-377 -253 288 0
-377 258 -294 0
377 253 -258 0
377 -288 294 0
-378 -327 381 0
-378 328 -379 0
-378 328 381 0
-378 -327 -379 0
378 327 -328 0
378 379 -381 0
379 445 -191 -221 0
379 -445 -221 -380 0
-379 221 0
-379 -445 380 0
-379 445 191 0
-380 446 293 0
-380 -446 291 0
380 -446 -291 0
380 446 -293 0
381 -201 -212 0
-381 201 0
-381 212 0
-382 379 -383 -385 0
-382 -381 383 385 0
-382 379 383 385 0
-382 -381 -383 -385 0
382 383 -385 0
382 -383 385 0
382 -379 381 0
383 445 -169 -221 0
383 -445 -221 -384 0
-383 221 0
-383 -445 384 0
-383 445 169 0
-384 446 268 0
-384 -446 264 0
384 -446 -264 0
384 446 -268 0
385 -181 -212 0
-385 181 0
-385 212 0
-450 0
2 0

